c A SAT instance generated from a 3-CNF formula that had 20 clauses and 10 variables
p cnf 10 20
4 -9 -3 0
5 -4 6 0
-7 -3 6 0
3 9 8 0
3 2 -6 0
10 -9 -8 0
-5 -6 -1 0
10 -5 -1 0
-3 -9 4 0
-9 3 -6 0
9 10 -1 0
4 8 -9 0
8 7 -6 0
9 -5 3 0
-5 -7 1 0
-3 -6 8 0
-3 -6 -9 0
-4 8 9 0
10 -7 -8 0
6 -4 1 0
